NAME : gaussian_random71.6467.tour
COMMENT : Length = 6467
COMMENT : Found by LKH [Keld Helsgaun] Sun Jul  7 17:45:09 2024
TYPE : TOUR
DIMENSION : 71
TOUR_SECTION
1
37
8
51
62
27
36
24
59
67
29
32
48
19
5
68
26
61
54
16
63
38
13
30
15
52
44
20
43
50
39
57
58
22
69
12
53
70
18
7
47
14
35
45
46
21
31
2
66
3
17
34
25
65
11
41
23
71
42
56
9
4
60
40
49
28
33
64
10
6
55
-1
EOF
